<?xml version = "1.0" encoding="UTF-8" standalone="yes"?>
<CPLEXSolution version="1.2">
 <header
   problemName="/Users/livingston/IdeaProjects/simccs-lanl/Datasets/SoutheastUS/Scenarios/timeScenario/Results/time05102021-16090039/time.mps"
   solutionName="incumbent"
   solutionIndex="-1"
   objectiveValue="570.27737999999999"
   solutionTypeValue="3"
   solutionTypeString="primal"
   solutionStatusValue="101"
   solutionStatusString="integer optimal solution"
   solutionMethodString="mip"
   primalFeasible="1"
   dualFeasible="1"
   MIPNodes="0"
   MIPIterations="42"
   writeLevel="1"/>
 <quality
   epInt="1.0000000000000001e-05"
   epRHS="9.9999999999999995e-07"
   maxIntInfeas="0"
   maxPrimalInfeas="0"
   maxX="4"
   maxSlack="164"/>
 <linearConstraints>
  <constraint name="B20" index="0" slack="1"/>
  <constraint name="B21" index="1" slack="1"/>
  <constraint name="B22" index="2" slack="1"/>
  <constraint name="B23" index="3" slack="1"/>
  <constraint name="B24" index="4" slack="1"/>
  <constraint name="B25" index="5" slack="1"/>
  <constraint name="A108" index="6" slack="0"/>
  <constraint name="B26" index="7" slack="1"/>
  <constraint name="A109" index="8" slack="0"/>
  <constraint name="B27" index="9" slack="0"/>
  <constraint name="A106" index="10" slack="-2"/>
  <constraint name="B28" index="11" slack="1"/>
  <constraint name="A107" index="12" slack="0"/>
  <constraint name="B29" index="13" slack="1"/>
  <constraint name="A104" index="14" slack="0"/>
  <constraint name="A105" index="15" slack="7.0446299999999997"/>
  <constraint name="A102" index="16" slack="0"/>
  <constraint name="A103" index="17" slack="0"/>
  <constraint name="A100" index="18" slack="0"/>
  <constraint name="A101" index="19" slack="0"/>
  <constraint name="H[1][1]" index="20" slack="0"/>
  <constraint name="A1" index="21" slack="0"/>
  <constraint name="A2" index="22" slack="0"/>
  <constraint name="A3" index="23" slack="0"/>
  <constraint name="A4" index="24" slack="0"/>
  <constraint name="A5" index="25" slack="0"/>
  <constraint name="A6" index="26" slack="0"/>
  <constraint name="A7" index="27" slack="0"/>
  <constraint name="A8" index="28" slack="0"/>
  <constraint name="A9" index="29" slack="0"/>
  <constraint name="B30" index="30" slack="1"/>
  <constraint name="A10" index="31" slack="0"/>
  <constraint name="B31" index="32" slack="1"/>
  <constraint name="A11" index="33" slack="0"/>
  <constraint name="B32" index="34" slack="1"/>
  <constraint name="A12" index="35" slack="0"/>
  <constraint name="B33" index="36" slack="1"/>
  <constraint name="A13" index="37" slack="0"/>
  <constraint name="B34" index="38" slack="1"/>
  <constraint name="A14" index="39" slack="0"/>
  <constraint name="B35" index="40" slack="1"/>
  <constraint name="A15" index="41" slack="0"/>
  <constraint name="B36" index="42" slack="1"/>
  <constraint name="A16" index="43" slack="0"/>
  <constraint name="A119" index="44" slack="0"/>
  <constraint name="B37" index="45" slack="0"/>
  <constraint name="A17" index="46" slack="0"/>
  <constraint name="B38" index="47" slack="1"/>
  <constraint name="A18" index="48" slack="0"/>
  <constraint name="A117" index="49" slack="0"/>
  <constraint name="B39" index="50" slack="1"/>
  <constraint name="A19" index="51" slack="0"/>
  <constraint name="A118" index="52" slack="0"/>
  <constraint name="A115" index="53" slack="0"/>
  <constraint name="A116" index="54" slack="0"/>
  <constraint name="A113" index="55" slack="0"/>
  <constraint name="A114" index="56" slack="0"/>
  <constraint name="A111" index="57" slack="0"/>
  <constraint name="H[1][0]" index="58" slack="0"/>
  <constraint name="A112" index="59" slack="0"/>
  <constraint name="B1" index="60" slack="1"/>
  <constraint name="B2" index="61" slack="1"/>
  <constraint name="A110" index="62" slack="0"/>
  <constraint name="B3" index="63" slack="1"/>
  <constraint name="B4" index="64" slack="1"/>
  <constraint name="B5" index="65" slack="1"/>
  <constraint name="B6" index="66" slack="1"/>
  <constraint name="B7" index="67" slack="1"/>
  <constraint name="B8" index="68" slack="1"/>
  <constraint name="B9" index="69" slack="1"/>
  <constraint name="B40" index="70" slack="0"/>
  <constraint name="A20" index="71" slack="0"/>
  <constraint name="B41" index="72" slack="1"/>
  <constraint name="A21" index="73" slack="0"/>
  <constraint name="B42" index="74" slack="1"/>
  <constraint name="A22" index="75" slack="0"/>
  <constraint name="B43" index="76" slack="1"/>
  <constraint name="A23" index="77" slack="0"/>
  <constraint name="B44" index="78" slack="1"/>
  <constraint name="A24" index="79" slack="0"/>
  <constraint name="B45" index="80" slack="1"/>
  <constraint name="A25" index="81" slack="0"/>
  <constraint name="B46" index="82" slack="1"/>
  <constraint name="A26" index="83" slack="0"/>
  <constraint name="B47" index="84" slack="1"/>
  <constraint name="A27" index="85" slack="0"/>
  <constraint name="B48" index="86" slack="1"/>
  <constraint name="A28" index="87" slack="0"/>
  <constraint name="A29" index="88" slack="0"/>
  <constraint name="A128" index="89" slack="0"/>
  <constraint name="A129" index="90" slack="0"/>
  <constraint name="A126" index="91" slack="0"/>
  <constraint name="A127" index="92" slack="0"/>
  <constraint name="A124" index="93" slack="0"/>
  <constraint name="A125" index="94" slack="0"/>
  <constraint name="A122" index="95" slack="0"/>
  <constraint name="C1" index="96" slack="0"/>
  <constraint name="A123" index="97" slack="0"/>
  <constraint name="C2" index="98" slack="0"/>
  <constraint name="A120" index="99" slack="0"/>
  <constraint name="C3" index="100" slack="0"/>
  <constraint name="A121" index="101" slack="0"/>
  <constraint name="C4" index="102" slack="0"/>
  <constraint name="C5" index="103" slack="0"/>
  <constraint name="C6" index="104" slack="0"/>
  <constraint name="C7" index="105" slack="0"/>
  <constraint name="C8" index="106" slack="0"/>
  <constraint name="C9" index="107" slack="0"/>
  <constraint name="A30" index="108" slack="0"/>
  <constraint name="A31" index="109" slack="0"/>
  <constraint name="A32" index="110" slack="0"/>
  <constraint name="A33" index="111" slack="0"/>
  <constraint name="A34" index="112" slack="0"/>
  <constraint name="A35" index="113" slack="0"/>
  <constraint name="A36" index="114" slack="0"/>
  <constraint name="A37" index="115" slack="0"/>
  <constraint name="A38" index="116" slack="0"/>
  <constraint name="A39" index="117" slack="0"/>
  <constraint name="A139" index="118" slack="0"/>
  <constraint name="A137" index="119" slack="0"/>
  <constraint name="A138" index="120" slack="0"/>
  <constraint name="A135" index="121" slack="0"/>
  <constraint name="A136" index="122" slack="0"/>
  <constraint name="D1" index="123" slack="0"/>
  <constraint name="A133" index="124" slack="0"/>
  <constraint name="D2" index="125" slack="0"/>
  <constraint name="A134" index="126" slack="0"/>
  <constraint name="D3" index="127" slack="0"/>
  <constraint name="A131" index="128" slack="0"/>
  <constraint name="D4" index="129" slack="-1.2759999999999998"/>
  <constraint name="A132" index="130" slack="0"/>
  <constraint name="A130" index="131" slack="0"/>
  <constraint name="A40" index="132" slack="0"/>
  <constraint name="A41" index="133" slack="0"/>
  <constraint name="A42" index="134" slack="0"/>
  <constraint name="A43" index="135" slack="0"/>
  <constraint name="A44" index="136" slack="0"/>
  <constraint name="A45" index="137" slack="0"/>
  <constraint name="A46" index="138" slack="0"/>
  <constraint name="A47" index="139" slack="0"/>
  <constraint name="A48" index="140" slack="0"/>
  <constraint name="A49" index="141" slack="0"/>
  <constraint name="A148" index="142" slack="0"/>
  <constraint name="A149" index="143" slack="0"/>
  <constraint name="A146" index="144" slack="-2"/>
  <constraint name="E1" index="145" slack="0"/>
  <constraint name="A147" index="146" slack="0"/>
  <constraint name="E2" index="147" slack="0"/>
  <constraint name="A144" index="148" slack="0"/>
  <constraint name="E3" index="149" slack="0"/>
  <constraint name="A145" index="150" slack="7.0446299999999997"/>
  <constraint name="E4" index="151" slack="0"/>
  <constraint name="A142" index="152" slack="0"/>
  <constraint name="A143" index="153" slack="0"/>
  <constraint name="A140" index="154" slack="0"/>
  <constraint name="A141" index="155" slack="0"/>
  <constraint name="A50" index="156" slack="0"/>
  <constraint name="H[2]" index="157" slack="0"/>
  <constraint name="A51" index="158" slack="0"/>
  <constraint name="A52" index="159" slack="0"/>
  <constraint name="A53" index="160" slack="0"/>
  <constraint name="A54" index="161" slack="0"/>
  <constraint name="A55" index="162" slack="0"/>
  <constraint name="A56" index="163" slack="0"/>
  <constraint name="A57" index="164" slack="0"/>
  <constraint name="A58" index="165" slack="0"/>
  <constraint name="A59" index="166" slack="0"/>
  <constraint name="A159" index="167" slack="0"/>
  <constraint name="F1" index="168" slack="0"/>
  <constraint name="A157" index="169" slack="7.0446299999999997"/>
  <constraint name="F2" index="170" slack="0"/>
  <constraint name="A158" index="171" slack="-2"/>
  <constraint name="F3" index="172" slack="0"/>
  <constraint name="A155" index="173" slack="0"/>
  <constraint name="F4" index="174" slack="-164"/>
  <constraint name="A156" index="175" slack="0"/>
  <constraint name="A153" index="176" slack="0"/>
  <constraint name="A154" index="177" slack="0"/>
  <constraint name="A151" index="178" slack="0"/>
  <constraint name="A152" index="179" slack="0"/>
  <constraint name="A150" index="180" slack="0"/>
  <constraint name="A60" index="181" slack="0"/>
  <constraint name="A61" index="182" slack="0"/>
  <constraint name="A62" index="183" slack="0"/>
  <constraint name="A63" index="184" slack="0"/>
  <constraint name="A64" index="185" slack="0"/>
  <constraint name="A65" index="186" slack="0"/>
  <constraint name="A66" index="187" slack="0"/>
  <constraint name="A67" index="188" slack="0"/>
  <constraint name="A68" index="189" slack="0"/>
  <constraint name="A69" index="190" slack="0"/>
  <constraint name="H[3][0]" index="191" slack="0"/>
  <constraint name="G1" index="192" slack="0"/>
  <constraint name="A168" index="193" slack="0"/>
  <constraint name="A169" index="194" slack="0"/>
  <constraint name="A166" index="195" slack="0"/>
  <constraint name="A167" index="196" slack="0"/>
  <constraint name="A164" index="197" slack="0"/>
  <constraint name="A165" index="198" slack="0"/>
  <constraint name="A162" index="199" slack="0"/>
  <constraint name="A163" index="200" slack="0"/>
  <constraint name="A160" index="201" slack="0"/>
  <constraint name="A161" index="202" slack="0"/>
  <constraint name="A70" index="203" slack="0"/>
  <constraint name="A71" index="204" slack="0"/>
  <constraint name="A72" index="205" slack="0"/>
  <constraint name="A73" index="206" slack="0"/>
  <constraint name="A74" index="207" slack="0"/>
  <constraint name="A75" index="208" slack="0"/>
  <constraint name="A76" index="209" slack="0"/>
  <constraint name="A77" index="210" slack="0"/>
  <constraint name="A78" index="211" slack="0"/>
  <constraint name="A79" index="212" slack="0"/>
  <constraint name="H[3][1]" index="213" slack="0"/>
  <constraint name="A179" index="214" slack="0"/>
  <constraint name="A177" index="215" slack="0"/>
  <constraint name="A178" index="216" slack="0"/>
  <constraint name="A175" index="217" slack="0"/>
  <constraint name="A176" index="218" slack="0"/>
  <constraint name="A173" index="219" slack="0"/>
  <constraint name="A174" index="220" slack="0"/>
  <constraint name="A171" index="221" slack="0"/>
  <constraint name="A172" index="222" slack="0"/>
  <constraint name="A170" index="223" slack="0"/>
  <constraint name="A80" index="224" slack="0"/>
  <constraint name="A81" index="225" slack="0"/>
  <constraint name="A82" index="226" slack="0"/>
  <constraint name="A83" index="227" slack="0"/>
  <constraint name="A84" index="228" slack="0"/>
  <constraint name="A85" index="229" slack="0"/>
  <constraint name="A86" index="230" slack="0"/>
  <constraint name="A87" index="231" slack="0"/>
  <constraint name="A88" index="232" slack="0"/>
  <constraint name="A89" index="233" slack="0"/>
  <constraint name="A188" index="234" slack="0"/>
  <constraint name="A189" index="235" slack="0"/>
  <constraint name="A186" index="236" slack="0"/>
  <constraint name="A187" index="237" slack="0"/>
  <constraint name="A184" index="238" slack="0"/>
  <constraint name="A185" index="239" slack="0"/>
  <constraint name="A182" index="240" slack="0"/>
  <constraint name="A183" index="241" slack="0"/>
  <constraint name="A180" index="242" slack="0"/>
  <constraint name="A181" index="243" slack="0"/>
  <constraint name="A90" index="244" slack="0"/>
  <constraint name="A91" index="245" slack="0"/>
  <constraint name="A92" index="246" slack="0"/>
  <constraint name="A93" index="247" slack="0"/>
  <constraint name="A94" index="248" slack="0"/>
  <constraint name="A95" index="249" slack="0"/>
  <constraint name="A96" index="250" slack="0"/>
  <constraint name="A97" index="251" slack="0"/>
  <constraint name="A98" index="252" slack="0"/>
  <constraint name="A99" index="253" slack="0"/>
  <constraint name="A191" index="254" slack="0"/>
  <constraint name="A192" index="255" slack="0"/>
  <constraint name="A190" index="256" slack="0"/>
  <constraint name="C11" index="257" slack="0"/>
  <constraint name="C10" index="258" slack="0"/>
  <constraint name="C13" index="259" slack="0"/>
  <constraint name="C12" index="260" slack="0"/>
  <constraint name="C15" index="261" slack="0"/>
  <constraint name="C14" index="262" slack="0"/>
  <constraint name="C17" index="263" slack="0"/>
  <constraint name="C16" index="264" slack="0"/>
  <constraint name="C19" index="265" slack="0"/>
  <constraint name="C18" index="266" slack="0"/>
  <constraint name="C20" index="267" slack="0"/>
  <constraint name="B10" index="268" slack="1"/>
  <constraint name="B11" index="269" slack="1"/>
  <constraint name="B12" index="270" slack="1"/>
  <constraint name="B13" index="271" slack="1"/>
  <constraint name="B14" index="272" slack="1"/>
  <constraint name="B15" index="273" slack="1"/>
  <constraint name="B16" index="274" slack="1"/>
  <constraint name="B17" index="275" slack="1"/>
  <constraint name="B18" index="276" slack="1"/>
  <constraint name="B19" index="277" slack="1"/>
 </linearConstraints>
 <variables>
  <variable name="y[16][1][0]" index="0" value="-0"/>
  <variable name="y[1][1][1]" index="1" value="-0"/>
  <variable name="y[0][1][1]" index="2" value="-0"/>
  <variable name="y[2][1][1]" index="3" value="-0"/>
  <variable name="y[12][1][0]" index="4" value="-0"/>
  <variable name="y[13][1][0]" index="5" value="-0"/>
  <variable name="y[18][1][0]" index="6" value="-0"/>
  <variable name="y[10][1][0]" index="7" value="-0"/>
  <variable name="y[11][1][0]" index="8" value="-0"/>
  <variable name="y[14][1][0]" index="9" value="-0"/>
  <variable name="y[15][1][0]" index="10" value="-0"/>
  <variable name="y[17][1][0]" index="11" value="-0"/>
  <variable name="y[19][1][0]" index="12" value="-0"/>
  <variable name="y[8][1][1]" index="13" value="-0"/>
  <variable name="y[9][1][1]" index="14" value="-0"/>
  <variable name="y[5][1][1]" index="15" value="-0"/>
  <variable name="y[4][1][1]" index="16" value="-0"/>
  <variable name="y[3][1][1]" index="17" value="-0"/>
  <variable name="y[6][1][1]" index="18" value="-0"/>
  <variable name="y[7][1][1]" index="19" value="-0"/>
  <variable name="y[1][1][0]" index="20" value="-0"/>
  <variable name="y[16][1][1]" index="21" value="-0"/>
  <variable name="s[1][0]" index="22" value="-0"/>
  <variable name="y[12][1][1]" index="23" value="-0"/>
  <variable name="y[21][1][1]" index="24" value="-0"/>
  <variable name="w[0][0]" index="25" value="-0"/>
  <variable name="y[10][1][1]" index="26" value="-0"/>
  <variable name="y[14][1][1]" index="27" value="-0"/>
  <variable name="y[18][1][1]" index="28" value="-0"/>
  <variable name="y[23][1][1]" index="29" value="-0"/>
  <variable name="y[9][1][0]" index="30" value="-0"/>
  <variable name="y[5][1][0]" index="31" value="-0"/>
  <variable name="y[7][1][0]" index="32" value="-0"/>
  <variable name="y[3][1][0]" index="33" value="-0"/>
  <variable name="r[1][1]" index="34" value="1"/>
  <variable name="s[1][1]" index="35" value="1"/>
  <variable name="y[21][1][0]" index="36" value="-0"/>
  <variable name="w[0][1]" index="37" value="-0"/>
  <variable name="y[22][1][0]" index="38" value="-0"/>
  <variable name="y[23][0][0]" index="39" value="-0"/>
  <variable name="y[20][0][0]" index="40" value="-0"/>
  <variable name="y[2][1][0]" index="41" value="-0"/>
  <variable name="y[15][1][1]" index="42" value="-0"/>
  <variable name="y[4][0][0]" index="43" value="-0"/>
  <variable name="y[19][1][1]" index="44" value="-0"/>
  <variable name="y[11][1][1]" index="45" value="-0"/>
  <variable name="y[22][1][1]" index="46" value="-0"/>
  <variable name="r[0][0]" index="47" value="-0"/>
  <variable name="y[8][0][0]" index="48" value="-0"/>
  <variable name="y[0][0][1]" index="49" value="-0"/>
  <variable name="y[20][0][1]" index="50" value="-0"/>
  <variable name="y[13][0][1]" index="51" value="-0"/>
  <variable name="y[6][1][0]" index="52" value="-0"/>
  <variable name="y[17][0][1]" index="53" value="-0"/>
  <variable name="y[7][0][1]" index="54" value="-0"/>
  <variable name="y[3][0][1]" index="55" value="-0"/>
  <variable name="y[4][0][1]" index="56" value="-0"/>
  <variable name="y[9][0][1]" index="57" value="-0"/>
  <variable name="y[1][0][1]" index="58" value="-0"/>
  <variable name="y[2][0][1]" index="59" value="1"/>
  <variable name="y[5][0][1]" index="60" value="-0"/>
  <variable name="y[6][0][1]" index="61" value="-0"/>
  <variable name="y[8][0][1]" index="62" value="-0"/>
  <variable name="r[0][1]" index="63" value="-0"/>
  <variable name="y[15][0][0]" index="64" value="-0"/>
  <variable name="y[0][0][0]" index="65" value="-0"/>
  <variable name="w[1][0]" index="66" value="-0"/>
  <variable name="y[11][0][0]" index="67" value="-0"/>
  <variable name="y[13][0][0]" index="68" value="-0"/>
  <variable name="y[10][0][0]" index="69" value="-0"/>
  <variable name="y[12][0][0]" index="70" value="-0"/>
  <variable name="y[14][0][0]" index="71" value="-0"/>
  <variable name="y[16][0][0]" index="72" value="-0"/>
  <variable name="y[17][0][0]" index="73" value="-0"/>
  <variable name="y[18][0][0]" index="74" value="-0"/>
  <variable name="y[19][0][0]" index="75" value="-0"/>
  <variable name="y[1][0][0]" index="76" value="-0"/>
  <variable name="y[3][0][0]" index="77" value="-0"/>
  <variable name="y[5][0][0]" index="78" value="-0"/>
  <variable name="y[7][0][0]" index="79" value="-0"/>
  <variable name="y[9][0][0]" index="80" value="-0"/>
  <variable name="y[23][0][1]" index="81" value="-0"/>
  <variable name="y[14][0][1]" index="82" value="-0"/>
  <variable name="s[0][0]" index="83" value="-0"/>
  <variable name="y[18][0][1]" index="84" value="-0"/>
  <variable name="y[10][0][1]" index="85" value="-0"/>
  <variable name="y[21][0][1]" index="86" value="-0"/>
  <variable name="y[12][0][1]" index="87" value="1"/>
  <variable name="y[16][0][1]" index="88" value="-0"/>
  <variable name="y[20][1][0]" index="89" value="-0"/>
  <variable name="y[23][1][0]" index="90" value="-0"/>
  <variable name="y[22][0][0]" index="91" value="-0"/>
  <variable name="s[0][1]" index="92" value="-0"/>
  <variable name="y[21][0][0]" index="93" value="-0"/>
  <variable name="r[1][0]" index="94" value="-0"/>
  <variable name="y[20][1][1]" index="95" value="-0"/>
  <variable name="y[13][1][1]" index="96" value="-0"/>
  <variable name="y[2][0][0]" index="97" value="-0"/>
  <variable name="y[6][0][0]" index="98" value="-0"/>
  <variable name="y[17][1][1]" index="99" value="-0"/>
  <variable name="y[15][0][1]" index="100" value="1"/>
  <variable name="y[22][0][1]" index="101" value="-0"/>
  <variable name="y[11][0][1]" index="102" value="-0"/>
  <variable name="w[1][1]" index="103" value="4"/>
  <variable name="y[0][1][0]" index="104" value="-0"/>
  <variable name="y[4][1][0]" index="105" value="-0"/>
  <variable name="y[8][1][0]" index="106" value="-0"/>
  <variable name="y[19][0][1]" index="107" value="-0"/>
  <variable name="p[6][0][1]" index="108" value="0"/>
  <variable name="p[7][0][1]" index="109" value="0"/>
  <variable name="projectLength[1]" index="110" value="3"/>
  <variable name="p[10][0][1]" index="111" value="0"/>
  <variable name="p[11][0][1]" index="112" value="0"/>
  <variable name="p[12][0][1]" index="113" value="2"/>
  <variable name="p[15][0][1]" index="114" value="2"/>
  <variable name="p[14][0][1]" index="115" value="0"/>
  <variable name="p[16][0][1]" index="116" value="0"/>
  <variable name="p[13][0][1]" index="117" value="0"/>
  <variable name="p[17][0][1]" index="118" value="0"/>
  <variable name="p[2][0][1]" index="119" value="2"/>
  <variable name="p[3][0][1]" index="120" value="0"/>
  <variable name="p[9][0][1]" index="121" value="0"/>
  <variable name="p[8][0][1]" index="122" value="0"/>
  <variable name="p[1][0][1]" index="123" value="0"/>
  <variable name="p[4][0][1]" index="124" value="0"/>
  <variable name="p[5][0][1]" index="125" value="0"/>
  <variable name="p[0][0][1]" index="126" value="0"/>
  <variable name="p[20][1][0]" index="127" value="0"/>
  <variable name="p[21][1][0]" index="128" value="0"/>
  <variable name="p[22][1][0]" index="129" value="0"/>
  <variable name="p[23][1][0]" index="130" value="0"/>
  <variable name="p[6][0][0]" index="131" value="0"/>
  <variable name="a[1][1]" index="132" value="2"/>
  <variable name="projectLength[0]" index="133" value="3"/>
  <variable name="p[8][0][0]" index="134" value="0"/>
  <variable name="p[10][0][0]" index="135" value="0"/>
  <variable name="p[12][0][0]" index="136" value="0"/>
  <variable name="b[1][0]" index="137" value="0"/>
  <variable name="p[19][0][1]" index="138" value="0"/>
  <variable name="p[0][0][0]" index="139" value="0"/>
  <variable name="p[14][0][0]" index="140" value="0"/>
  <variable name="p[16][0][0]" index="141" value="0"/>
  <variable name="p[2][0][0]" index="142" value="0"/>
  <variable name="p[4][0][0]" index="143" value="0"/>
  <variable name="b[0][1]" index="144" value="0"/>
  <variable name="captureTarget[0]" index="145" value="2"/>
  <variable name="p[20][1][1]" index="146" value="0"/>
  <variable name="p[22][1][1]" index="147" value="0"/>
  <variable name="a[1][0]" index="148" value="0"/>
  <variable name="p[16][1][0]" index="149" value="0"/>
  <variable name="p[15][1][0]" index="150" value="0"/>
  <variable name="p[18][0][0]" index="151" value="0"/>
  <variable name="p[20][0][1]" index="152" value="0"/>
  <variable name="p[21][0][1]" index="153" value="0"/>
  <variable name="p[8][1][0]" index="154" value="0"/>
  <variable name="p[7][1][0]" index="155" value="0"/>
  <variable name="p[11][1][0]" index="156" value="0"/>
  <variable name="p[12][1][0]" index="157" value="0"/>
  <variable name="p[19][1][0]" index="158" value="0"/>
  <variable name="p[16][1][1]" index="159" value="0"/>
  <variable name="p[20][0][0]" index="160" value="0"/>
  <variable name="p[13][0][0]" index="161" value="0"/>
  <variable name="p[18][0][1]" index="162" value="0"/>
  <variable name="p[3][1][0]" index="163" value="0"/>
  <variable name="p[8][1][1]" index="164" value="0"/>
  <variable name="p[17][0][0]" index="165" value="0"/>
  <variable name="p[12][1][1]" index="166" value="0"/>
  <variable name="p[9][0][0]" index="167" value="0"/>
  <variable name="p[1][0][0]" index="168" value="0"/>
  <variable name="p[5][0][0]" index="169" value="0"/>
  <variable name="p[23][1][1]" index="170" value="0"/>
  <variable name="p[0][1][1]" index="171" value="0"/>
  <variable name="p[4][1][1]" index="172" value="0"/>
  <variable name="p[2][1][1]" index="173" value="0"/>
  <variable name="p[6][1][1]" index="174" value="0"/>
  <variable name="p[1][1][1]" index="175" value="0"/>
  <variable name="p[3][1][1]" index="176" value="0"/>
  <variable name="p[5][1][1]" index="177" value="0"/>
  <variable name="a[0][1]" index="178" value="0"/>
  <variable name="p[0][1][0]" index="179" value="0"/>
  <variable name="p[17][1][1]" index="180" value="0"/>
  <variable name="p[15][1][1]" index="181" value="0"/>
  <variable name="p[4][1][0]" index="182" value="0"/>
  <variable name="p[6][1][0]" index="183" value="0"/>
  <variable name="p[2][1][0]" index="184" value="0"/>
  <variable name="p[9][1][1]" index="185" value="0"/>
  <variable name="p[21][0][0]" index="186" value="0"/>
  <variable name="p[23][0][0]" index="187" value="0"/>
  <variable name="p[7][1][1]" index="188" value="0"/>
  <variable name="p[11][1][1]" index="189" value="0"/>
  <variable name="p[13][1][1]" index="190" value="0"/>
  <variable name="p[19][1][1]" index="191" value="0"/>
  <variable name="p[17][1][0]" index="192" value="0"/>
  <variable name="p[18][1][0]" index="193" value="0"/>
  <variable name="p[19][0][0]" index="194" value="0"/>
  <variable name="b[1][1]" index="195" value="2"/>
  <variable name="p[22][0][1]" index="196" value="0"/>
  <variable name="p[23][0][1]" index="197" value="0"/>
  <variable name="p[10][1][0]" index="198" value="0"/>
  <variable name="p[9][1][0]" index="199" value="0"/>
  <variable name="crf" index="200" value="0.10000000000000001"/>
  <variable name="p[13][1][0]" index="201" value="0"/>
  <variable name="b[0][0]" index="202" value="0"/>
  <variable name="p[14][1][0]" index="203" value="0"/>
  <variable name="captureTarget[1]" index="204" value="2"/>
  <variable name="p[1][1][0]" index="205" value="0"/>
  <variable name="p[7][0][0]" index="206" value="0"/>
  <variable name="p[18][1][1]" index="207" value="0"/>
  <variable name="p[14][1][1]" index="208" value="0"/>
  <variable name="p[5][1][0]" index="209" value="0"/>
  <variable name="p[11][0][0]" index="210" value="0"/>
  <variable name="p[22][0][0]" index="211" value="0"/>
  <variable name="p[15][0][0]" index="212" value="0"/>
  <variable name="a[0][0]" index="213" value="0"/>
  <variable name="p[10][1][1]" index="214" value="0"/>
  <variable name="p[3][0][0]" index="215" value="0"/>
  <variable name="p[21][1][1]" index="216" value="0"/>
 </variables>
 <objectiveValues>
  <objective index="0" name="OBJ" value="570.27737999999999"/>
 </objectiveValues>
</CPLEXSolution>
